p cnf 421 1892
6 0
11 0
16 0
21 0
12 0
17 0
22 0
18 0
23 0
24 0
-6 -12 11 0
-6 -17 16 0
-6 -22 21 0
-11 -8 6 0
-11 -18 16 0
-11 -23 21 0
-16 -9 6 0
-16 -14 11 0
-16 -24 21 0
-21 -10 6 0
-21 -15 11 0
-21 -20 16 0
-2 -11 12 0
-2 -16 17 0
-2 -21 22 0
-12 -3 2 0
-12 -18 17 0
-12 -23 22 0
-17 -4 2 0
-17 -14 12 0
-17 -24 22 0
-22 -5 2 0
-22 -15 12 0
-22 -20 17 0
-3 -6 8 0
-3 -16 18 0
-3 -21 23 0
-8 -2 3 0
-8 -17 18 0
-8 -22 23 0
-18 -4 3 0
-18 -9 8 0
-18 -24 23 0
-23 -5 3 0
-23 -10 8 0
-23 -20 18 0
-4 -6 9 0
-4 -11 14 0
-4 -21 24 0
-9 -2 4 0
-9 -12 14 0
-9 -22 24 0
-14 -3 4 0
-14 -8 9 0
-14 -23 24 0
-24 -5 4 0
-24 -10 9 0
-24 -15 14 0
-5 -6 10 0
-5 -11 15 0
-5 -16 20 0
-10 -2 5 0
-10 -12 15 0
-10 -17 20 0
-15 -3 5 0
-15 -8 10 0
-15 -18 20 0
-20 -4 5 0
-20 -9 10 0
-20 -14 15 0
-31 -37 36 0
-31 -42 41 0
-31 -47 46 0
-36 -33 31 0
-36 -43 41 0
-36 -48 46 0
-41 -34 31 0
-41 -39 36 0
-41 -49 46 0
-46 -35 31 0
-46 -40 36 0
-46 -45 41 0
-27 -36 37 0
-27 -41 42 0
-27 -46 47 0
-37 -28 27 0
-37 -43 42 0
-37 -48 47 0
-42 -29 27 0
-42 -39 37 0
-42 -49 47 0
-47 -30 27 0
-47 -40 37 0
-47 -45 42 0
-28 -31 33 0
-28 -41 43 0
-28 -46 48 0
-33 -27 28 0
-33 -42 43 0
-33 -47 48 0
-43 -29 28 0
-43 -34 33 0
-43 -49 48 0
-48 -30 28 0
-48 -35 33 0
-48 -45 43 0
-29 -31 34 0
-29 -36 39 0
-29 -46 49 0
-34 -27 29 0
-34 -37 39 0
-34 -47 49 0
-39 -28 29 0
-39 -33 34 0
-39 -48 49 0
-49 -30 29 0
-49 -35 34 0
-49 -40 39 0
-30 -31 35 0
-30 -36 40 0
-30 -41 45 0
-35 -27 30 0
-35 -37 40 0
-35 -42 45 0
-40 -28 30 0
-40 -33 35 0
-40 -43 45 0
-45 -29 30 0
-45 -34 35 0
-45 -39 40 0
-56 -62 61 0
-56 -67 66 0
-56 -72 71 0
-61 -58 56 0
-61 -68 66 0
-61 -73 71 0
-66 -59 56 0
-66 -64 61 0
-66 -74 71 0
-71 -60 56 0
-71 -65 61 0
-71 -70 66 0
-52 -61 62 0
-52 -66 67 0
-52 -71 72 0
-62 -53 52 0
-62 -68 67 0
-62 -73 72 0
-67 -54 52 0
-67 -64 62 0
-67 -74 72 0
-72 -55 52 0
-72 -65 62 0
-72 -70 67 0
-53 -56 58 0
-53 -66 68 0
-53 -71 73 0
-58 -52 53 0
-58 -67 68 0
-58 -72 73 0
-68 -54 53 0
-68 -59 58 0
-68 -74 73 0
-73 -55 53 0
-73 -60 58 0
-73 -70 68 0
-54 -56 59 0
-54 -61 64 0
-54 -71 74 0
-59 -52 54 0
-59 -62 64 0
-59 -72 74 0
-64 -53 54 0
-64 -58 59 0
-64 -73 74 0
-74 -55 54 0
-74 -60 59 0
-74 -65 64 0
-55 -56 60 0
-55 -61 65 0
-55 -66 70 0
-60 -52 55 0
-60 -62 65 0
-60 -67 70 0
-65 -53 55 0
-65 -58 60 0
-65 -68 70 0
-70 -54 55 0
-70 -59 60 0
-70 -64 65 0
-81 -87 86 0
-81 -92 91 0
-81 -97 96 0
-86 -83 81 0
-86 -93 91 0
-86 -98 96 0
-91 -84 81 0
-91 -89 86 0
-91 -99 96 0
-96 -85 81 0
-96 -90 86 0
-96 -95 91 0
-77 -86 87 0
-77 -91 92 0
-77 -96 97 0
-87 -78 77 0
-87 -93 92 0
-87 -98 97 0
-92 -79 77 0
-92 -89 87 0
-92 -99 97 0
-97 -80 77 0
-97 -90 87 0
-97 -95 92 0
-78 -81 83 0
-78 -91 93 0
-78 -96 98 0
-83 -77 78 0
-83 -92 93 0
-83 -97 98 0
-93 -79 78 0
-93 -84 83 0
-93 -99 98 0
-98 -80 78 0
-98 -85 83 0
-98 -95 93 0
-79 -81 84 0
-79 -86 89 0
-79 -96 99 0
-84 -77 79 0
-84 -87 89 0
-84 -97 99 0
-89 -78 79 0
-89 -83 84 0
-89 -98 99 0
-99 -80 79 0
-99 -85 84 0
-99 -90 89 0
-80 -81 85 0
-80 -86 90 0
-80 -91 95 0
-85 -77 80 0
-85 -87 90 0
-85 -92 95 0
-90 -78 80 0
-90 -83 85 0
-90 -93 95 0
-95 -79 80 0
-95 -84 85 0
-95 -89 90 0
-106 -112 111 0
-106 -117 116 0
-106 -122 121 0
-111 -108 106 0
-111 -118 116 0
-111 -123 121 0
-116 -109 106 0
-116 -114 111 0
-116 -124 121 0
-121 -110 106 0
-121 -115 111 0
-121 -120 116 0
-102 -111 112 0
-102 -116 117 0
-102 -121 122 0
-112 -103 102 0
-112 -118 117 0
-112 -123 122 0
-117 -104 102 0
-117 -114 112 0
-117 -124 122 0
-122 -105 102 0
-122 -115 112 0
-122 -120 117 0
-103 -106 108 0
-103 -116 118 0
-103 -121 123 0
-108 -102 103 0
-108 -117 118 0
-108 -122 123 0
-118 -104 103 0
-118 -109 108 0
-118 -124 123 0
-123 -105 103 0
-123 -110 108 0
-123 -120 118 0
-104 -106 109 0
-104 -111 114 0
-104 -121 124 0
-109 -102 104 0
-109 -112 114 0
-109 -122 124 0
-114 -103 104 0
-114 -108 109 0
-114 -123 124 0
-124 -105 104 0
-124 -110 109 0
-124 -115 114 0
-105 -106 110 0
-105 -111 115 0
-105 -116 120 0
-110 -102 105 0
-110 -112 115 0
-110 -117 120 0
-115 -103 105 0
-115 -108 110 0
-115 -118 120 0
-120 -104 105 0
-120 -109 110 0
-120 -114 115 0
-131 -137 136 0
-131 -142 141 0
-131 -147 146 0
-136 -133 131 0
-136 -143 141 0
-136 -148 146 0
-141 -134 131 0
-141 -139 136 0
-141 -149 146 0
-146 -135 131 0
-146 -140 136 0
-146 -145 141 0
-127 -136 137 0
-127 -141 142 0
-127 -146 147 0
-137 -128 127 0
-137 -143 142 0
-137 -148 147 0
-142 -129 127 0
-142 -139 137 0
-142 -149 147 0
-147 -130 127 0
-147 -140 137 0
-147 -145 142 0
-128 -131 133 0
-128 -141 143 0
-128 -146 148 0
-133 -127 128 0
-133 -142 143 0
-133 -147 148 0
-143 -129 128 0
-143 -134 133 0
-143 -149 148 0
-148 -130 128 0
-148 -135 133 0
-148 -145 143 0
-129 -131 134 0
-129 -136 139 0
-129 -146 149 0
-134 -127 129 0
-134 -137 139 0
-134 -147 149 0
-139 -128 129 0
-139 -133 134 0
-139 -148 149 0
-149 -130 129 0
-149 -135 134 0
-149 -140 139 0
-130 -131 135 0
-130 -136 140 0
-130 -141 145 0
-135 -127 130 0
-135 -137 140 0
-135 -142 145 0
-140 -128 130 0
-140 -133 135 0
-140 -143 145 0
-145 -129 130 0
-145 -134 135 0
-145 -139 140 0
-156 -162 161 0
-156 -167 166 0
-156 -172 171 0
-161 -158 156 0
-161 -168 166 0
-161 -173 171 0
-166 -159 156 0
-166 -164 161 0
-166 -174 171 0
-171 -160 156 0
-171 -165 161 0
-171 -170 166 0
-152 -161 162 0
-152 -166 167 0
-152 -171 172 0
-162 -153 152 0
-162 -168 167 0
-162 -173 172 0
-167 -154 152 0
-167 -164 162 0
-167 -174 172 0
-172 -155 152 0
-172 -165 162 0
-172 -170 167 0
-153 -156 158 0
-153 -166 168 0
-153 -171 173 0
-158 -152 153 0
-158 -167 168 0
-158 -172 173 0
-168 -154 153 0
-168 -159 158 0
-168 -174 173 0
-173 -155 153 0
-173 -160 158 0
-173 -170 168 0
-154 -156 159 0
-154 -161 164 0
-154 -171 174 0
-159 -152 154 0
-159 -162 164 0
-159 -172 174 0
-164 -153 154 0
-164 -158 159 0
-164 -173 174 0
-174 -155 154 0
-174 -160 159 0
-174 -165 164 0
-155 -156 160 0
-155 -161 165 0
-155 -166 170 0
-160 -152 155 0
-160 -162 165 0
-160 -167 170 0
-165 -153 155 0
-165 -158 160 0
-165 -168 170 0
-170 -154 155 0
-170 -159 160 0
-170 -164 165 0
-181 -187 186 0
-181 -192 191 0
-181 -197 196 0
-186 -183 181 0
-186 -193 191 0
-186 -198 196 0
-191 -184 181 0
-191 -189 186 0
-191 -199 196 0
-196 -185 181 0
-196 -190 186 0
-196 -195 191 0
-177 -186 187 0
-177 -191 192 0
-177 -196 197 0
-187 -178 177 0
-187 -193 192 0
-187 -198 197 0
-192 -179 177 0
-192 -189 187 0
-192 -199 197 0
-197 -180 177 0
-197 -190 187 0
-197 -195 192 0
-178 -181 183 0
-178 -191 193 0
-178 -196 198 0
-183 -177 178 0
-183 -192 193 0
-183 -197 198 0
-193 -179 178 0
-193 -184 183 0
-193 -199 198 0
-198 -180 178 0
-198 -185 183 0
-198 -195 193 0
-179 -181 184 0
-179 -186 189 0
-179 -196 199 0
-184 -177 179 0
-184 -187 189 0
-184 -197 199 0
-189 -178 179 0
-189 -183 184 0
-189 -198 199 0
-199 -180 179 0
-199 -185 184 0
-199 -190 189 0
-180 -181 185 0
-180 -186 190 0
-180 -191 195 0
-185 -177 180 0
-185 -187 190 0
-185 -192 195 0
-190 -178 180 0
-190 -183 185 0
-190 -193 195 0
-195 -179 180 0
-195 -184 185 0
-195 -189 190 0
6 2 0
-6 -2 0
11 3 0
-11 -3 0
16 4 0
-16 -4 0
21 5 0
-21 -5 0
2 6 0
-2 -6 0
12 8 0
-12 -8 0
17 9 0
-17 -9 0
22 10 0
-22 -10 0
3 11 0
-3 -11 0
8 12 0
-8 -12 0
18 14 0
-18 -14 0
23 15 0
-23 -15 0
4 16 0
-4 -16 0
9 17 0
-9 -17 0
14 18 0
-14 -18 0
24 20 0
-24 -20 0
5 21 0
-5 -21 0
10 22 0
-10 -22 0
15 23 0
-15 -23 0
20 24 0
-20 -24 0
31 27 0
-31 -27 0
36 28 0
-36 -28 0
41 29 0
-41 -29 0
46 30 0
-46 -30 0
27 31 0
-27 -31 0
37 33 0
-37 -33 0
42 34 0
-42 -34 0
47 35 0
-47 -35 0
28 36 0
-28 -36 0
33 37 0
-33 -37 0
43 39 0
-43 -39 0
48 40 0
-48 -40 0
29 41 0
-29 -41 0
34 42 0
-34 -42 0
39 43 0
-39 -43 0
49 45 0
-49 -45 0
30 46 0
-30 -46 0
35 47 0
-35 -47 0
40 48 0
-40 -48 0
45 49 0
-45 -49 0
56 52 0
-56 -52 0
61 53 0
-61 -53 0
66 54 0
-66 -54 0
71 55 0
-71 -55 0
52 56 0
-52 -56 0
62 58 0
-62 -58 0
67 59 0
-67 -59 0
72 60 0
-72 -60 0
53 61 0
-53 -61 0
58 62 0
-58 -62 0
68 64 0
-68 -64 0
73 65 0
-73 -65 0
54 66 0
-54 -66 0
59 67 0
-59 -67 0
64 68 0
-64 -68 0
74 70 0
-74 -70 0
55 71 0
-55 -71 0
60 72 0
-60 -72 0
65 73 0
-65 -73 0
70 74 0
-70 -74 0
81 77 0
-81 -77 0
86 78 0
-86 -78 0
91 79 0
-91 -79 0
96 80 0
-96 -80 0
77 81 0
-77 -81 0
87 83 0
-87 -83 0
92 84 0
-92 -84 0
97 85 0
-97 -85 0
78 86 0
-78 -86 0
83 87 0
-83 -87 0
93 89 0
-93 -89 0
98 90 0
-98 -90 0
79 91 0
-79 -91 0
84 92 0
-84 -92 0
89 93 0
-89 -93 0
99 95 0
-99 -95 0
80 96 0
-80 -96 0
85 97 0
-85 -97 0
90 98 0
-90 -98 0
95 99 0
-95 -99 0
106 102 0
-106 -102 0
111 103 0
-111 -103 0
116 104 0
-116 -104 0
121 105 0
-121 -105 0
102 106 0
-102 -106 0
112 108 0
-112 -108 0
117 109 0
-117 -109 0
122 110 0
-122 -110 0
103 111 0
-103 -111 0
108 112 0
-108 -112 0
118 114 0
-118 -114 0
123 115 0
-123 -115 0
104 116 0
-104 -116 0
109 117 0
-109 -117 0
114 118 0
-114 -118 0
124 120 0
-124 -120 0
105 121 0
-105 -121 0
110 122 0
-110 -122 0
115 123 0
-115 -123 0
120 124 0
-120 -124 0
131 127 0
-131 -127 0
136 128 0
-136 -128 0
141 129 0
-141 -129 0
146 130 0
-146 -130 0
127 131 0
-127 -131 0
137 133 0
-137 -133 0
142 134 0
-142 -134 0
147 135 0
-147 -135 0
128 136 0
-128 -136 0
133 137 0
-133 -137 0
143 139 0
-143 -139 0
148 140 0
-148 -140 0
129 141 0
-129 -141 0
134 142 0
-134 -142 0
139 143 0
-139 -143 0
149 145 0
-149 -145 0
130 146 0
-130 -146 0
135 147 0
-135 -147 0
140 148 0
-140 -148 0
145 149 0
-145 -149 0
156 152 0
-156 -152 0
161 153 0
-161 -153 0
166 154 0
-166 -154 0
171 155 0
-171 -155 0
152 156 0
-152 -156 0
162 158 0
-162 -158 0
167 159 0
-167 -159 0
172 160 0
-172 -160 0
153 161 0
-153 -161 0
158 162 0
-158 -162 0
168 164 0
-168 -164 0
173 165 0
-173 -165 0
154 166 0
-154 -166 0
159 167 0
-159 -167 0
164 168 0
-164 -168 0
174 170 0
-174 -170 0
155 171 0
-155 -171 0
160 172 0
-160 -172 0
165 173 0
-165 -173 0
170 174 0
-170 -174 0
181 177 0
-181 -177 0
186 178 0
-186 -178 0
191 179 0
-191 -179 0
196 180 0
-196 -180 0
177 181 0
-177 -181 0
187 183 0
-187 -183 0
192 184 0
-192 -184 0
197 185 0
-197 -185 0
178 186 0
-178 -186 0
183 187 0
-183 -187 0
193 189 0
-193 -189 0
198 190 0
-198 -190 0
179 191 0
-179 -191 0
184 192 0
-184 -192 0
189 193 0
-189 -193 0
199 195 0
-199 -195 0
180 196 0
-180 -196 0
185 197 0
-185 -197 0
190 198 0
-190 -198 0
195 199 0
-195 -199 0
-301 -312 0
-301 -323 0
-301 -334 0
-301 -345 0
-301 -356 0
-301 -367 0
-312 -323 0
-312 -334 0
-312 -345 0
-312 -356 0
-312 -367 0
-323 -334 0
-323 -345 0
-323 -356 0
-323 -367 0
-334 -345 0
-334 -356 0
-334 -367 0
-345 -356 0
-345 -367 0
-356 -367 0
-302 -313 0
-302 -324 0
-302 -335 0
-302 -346 0
-302 -357 0
-302 -368 0
-313 -324 0
-313 -335 0
-313 -346 0
-313 -357 0
-313 -368 0
-324 -335 0
-324 -346 0
-324 -357 0
-324 -368 0
-335 -346 0
-335 -357 0
-335 -368 0
-346 -357 0
-346 -368 0
-357 -368 0
-303 -314 0
-303 -325 0
-303 -336 0
-303 -347 0
-303 -358 0
-303 -369 0
-314 -325 0
-314 -336 0
-314 -347 0
-314 -358 0
-314 -369 0
-325 -336 0
-325 -347 0
-325 -358 0
-325 -369 0
-336 -347 0
-336 -358 0
-336 -369 0
-347 -358 0
-347 -369 0
-358 -369 0
-304 -315 0
-304 -326 0
-304 -337 0
-304 -348 0
-304 -359 0
-304 -370 0
-315 -326 0
-315 -337 0
-315 -348 0
-315 -359 0
-315 -370 0
-326 -337 0
-326 -348 0
-326 -359 0
-326 -370 0
-337 -348 0
-337 -359 0
-337 -370 0
-348 -359 0
-348 -370 0
-359 -370 0
-305 -316 0
-305 -327 0
-305 -338 0
-305 -349 0
-305 -360 0
-305 -371 0
-316 -327 0
-316 -338 0
-316 -349 0
-316 -360 0
-316 -371 0
-327 -338 0
-327 -349 0
-327 -360 0
-327 -371 0
-338 -349 0
-338 -360 0
-338 -371 0
-349 -360 0
-349 -371 0
-360 -371 0
-306 -317 0
-306 -328 0
-306 -339 0
-306 -350 0
-306 -361 0
-306 -372 0
-317 -328 0
-317 -339 0
-317 -350 0
-317 -361 0
-317 -372 0
-328 -339 0
-328 -350 0
-328 -361 0
-328 -372 0
-339 -350 0
-339 -361 0
-339 -372 0
-350 -361 0
-350 -372 0
-361 -372 0
-307 -318 0
-307 -329 0
-307 -340 0
-307 -351 0
-307 -362 0
-307 -373 0
-318 -329 0
-318 -340 0
-318 -351 0
-318 -362 0
-318 -373 0
-329 -340 0
-329 -351 0
-329 -362 0
-329 -373 0
-340 -351 0
-340 -362 0
-340 -373 0
-351 -362 0
-351 -373 0
-362 -373 0
-308 -319 0
-308 -330 0
-308 -341 0
-308 -352 0
-308 -363 0
-308 -374 0
-319 -330 0
-319 -341 0
-319 -352 0
-319 -363 0
-319 -374 0
-330 -341 0
-330 -352 0
-330 -363 0
-330 -374 0
-341 -352 0
-341 -363 0
-341 -374 0
-352 -363 0
-352 -374 0
-363 -374 0
-309 -320 0
-309 -331 0
-309 -342 0
-309 -353 0
-309 -364 0
-309 -375 0
-320 -331 0
-320 -342 0
-320 -353 0
-320 -364 0
-320 -375 0
-331 -342 0
-331 -353 0
-331 -364 0
-331 -375 0
-342 -353 0
-342 -364 0
-342 -375 0
-353 -364 0
-353 -375 0
-364 -375 0
-310 -321 0
-310 -332 0
-310 -343 0
-310 -354 0
-310 -365 0
-310 -376 0
-321 -332 0
-321 -343 0
-321 -354 0
-321 -365 0
-321 -376 0
-332 -343 0
-332 -354 0
-332 -365 0
-332 -376 0
-343 -354 0
-343 -365 0
-343 -376 0
-354 -365 0
-354 -376 0
-365 -376 0
-311 -322 0
-311 -333 0
-311 -344 0
-311 -355 0
-311 -366 0
-311 -377 0
-322 -333 0
-322 -344 0
-322 -355 0
-322 -366 0
-322 -377 0
-333 -344 0
-333 -355 0
-333 -366 0
-333 -377 0
-344 -355 0
-344 -366 0
-344 -377 0
-355 -366 0
-355 -377 0
-366 -377 0
301 312 323 334 345 356 367 0
302 313 324 335 346 357 368 0
303 314 325 336 347 358 369 0
304 315 326 337 348 359 370 0
305 316 327 338 349 360 371 0
306 317 328 339 350 361 372 0
307 318 329 340 351 362 373 0
308 319 330 341 352 363 374 0
309 320 331 342 353 364 375 0
310 321 332 343 354 365 376 0
311 322 333 344 355 366 377 0
-301 -6 -31 0
-301 6 31 0
-312 -31 -56 0
-312 31 56 0
-323 -56 -81 0
-323 56 81 0
-334 -81 -106 0
-334 81 106 0
-345 -106 -131 0
-345 106 131 0
-356 -131 -156 0
-356 131 156 0
-367 -156 -181 0
-367 156 181 0
-302 -11 -36 0
-302 11 36 0
-313 -36 -61 0
-313 36 61 0
-324 -61 -86 0
-324 61 86 0
-335 -86 -111 0
-335 86 111 0
-346 -111 -136 0
-346 111 136 0
-357 -136 -161 0
-357 136 161 0
-368 -161 -186 0
-368 161 186 0
-303 -16 -41 0
-303 16 41 0
-314 -41 -66 0
-314 41 66 0
-325 -66 -91 0
-325 66 91 0
-336 -91 -116 0
-336 91 116 0
-347 -116 -141 0
-347 116 141 0
-358 -141 -166 0
-358 141 166 0
-369 -166 -191 0
-369 166 191 0
-304 -21 -46 0
-304 21 46 0
-315 -46 -71 0
-315 46 71 0
-326 -71 -96 0
-326 71 96 0
-337 -96 -121 0
-337 96 121 0
-348 -121 -146 0
-348 121 146 0
-359 -146 -171 0
-359 146 171 0
-370 -171 -196 0
-370 171 196 0
-305 -12 -37 0
-305 12 37 0
-316 -37 -62 0
-316 37 62 0
-327 -62 -87 0
-327 62 87 0
-338 -87 -112 0
-338 87 112 0
-349 -112 -137 0
-349 112 137 0
-360 -137 -162 0
-360 137 162 0
-371 -162 -187 0
-371 162 187 0
-306 -17 -42 0
-306 17 42 0
-317 -42 -67 0
-317 42 67 0
-328 -67 -92 0
-328 67 92 0
-339 -92 -117 0
-339 92 117 0
-350 -117 -142 0
-350 117 142 0
-361 -142 -167 0
-361 142 167 0
-372 -167 -192 0
-372 167 192 0
-307 -22 -47 0
-307 22 47 0
-318 -47 -72 0
-318 47 72 0
-329 -72 -97 0
-329 72 97 0
-340 -97 -122 0
-340 97 122 0
-351 -122 -147 0
-351 122 147 0
-362 -147 -172 0
-362 147 172 0
-373 -172 -197 0
-373 172 197 0
-308 -22 -47 0
-308 22 47 0
-319 -47 -72 0
-319 47 72 0
-330 -72 -97 0
-330 72 97 0
-341 -97 -122 0
-341 97 122 0
-352 -122 -147 0
-352 122 147 0
-363 -147 -172 0
-363 147 172 0
-374 -172 -197 0
-374 172 197 0
-309 -22 -47 0
-309 22 47 0
-320 -47 -72 0
-320 47 72 0
-331 -72 -97 0
-331 72 97 0
-342 -97 -122 0
-342 97 122 0
-353 -122 -147 0
-353 122 147 0
-364 -147 -172 0
-364 147 172 0
-375 -172 -197 0
-375 172 197 0
-310 -24 -49 0
-310 24 49 0
-321 -49 -74 0
-321 49 74 0
-332 -74 -99 0
-332 74 99 0
-343 -99 -124 0
-343 99 124 0
-354 -124 -149 0
-354 124 149 0
-365 -149 -174 0
-365 149 174 0
-376 -174 -199 0
-376 174 199 0
-311 -24 -49 0
-311 24 49 0
-322 -49 -74 0
-322 49 74 0
-333 -74 -99 0
-333 74 99 0
-344 -99 -124 0
-344 99 124 0
-355 -124 -149 0
-355 124 149 0
-366 -149 -174 0
-366 149 174 0
-377 -174 -199 0
-377 174 199 0
-6 31 301 0
6 -31 301 0
-11 36 302 0
11 -36 302 0
-16 41 303 0
16 -41 303 0
-21 46 304 0
21 -46 304 0
-12 37 305 0
12 -37 305 0
-17 42 306 0
17 -42 306 0
-22 47 307 308 309 0
22 -47 307 308 309 0
-18 43 0
18 -43 0
-23 48 0
23 -48 0
-24 49 310 311 0
24 -49 310 311 0
-31 56 312 0
31 -56 312 0
-36 61 313 0
36 -61 313 0
-41 66 314 0
41 -66 314 0
-46 71 315 0
46 -71 315 0
-37 62 316 0
37 -62 316 0
-42 67 317 0
42 -67 317 0
-47 72 318 319 320 0
47 -72 318 319 320 0
-43 68 0
43 -68 0
-48 73 0
48 -73 0
-49 74 321 322 0
49 -74 321 322 0
-56 81 323 0
56 -81 323 0
-61 86 324 0
61 -86 324 0
-66 91 325 0
66 -91 325 0
-71 96 326 0
71 -96 326 0
-62 87 327 0
62 -87 327 0
-67 92 328 0
67 -92 328 0
-72 97 329 330 331 0
72 -97 329 330 331 0
-68 93 0
68 -93 0
-73 98 0
73 -98 0
-74 99 332 333 0
74 -99 332 333 0
-81 106 334 0
81 -106 334 0
-86 111 335 0
86 -111 335 0
-91 116 336 0
91 -116 336 0
-96 121 337 0
96 -121 337 0
-87 112 338 0
87 -112 338 0
-92 117 339 0
92 -117 339 0
-97 122 340 341 342 0
97 -122 340 341 342 0
-93 118 0
93 -118 0
-98 123 0
98 -123 0
-99 124 343 344 0
99 -124 343 344 0
-106 131 345 0
106 -131 345 0
-111 136 346 0
111 -136 346 0
-116 141 347 0
116 -141 347 0
-121 146 348 0
121 -146 348 0
-112 137 349 0
112 -137 349 0
-117 142 350 0
117 -142 350 0
-122 147 351 352 353 0
122 -147 351 352 353 0
-118 143 0
118 -143 0
-123 148 0
123 -148 0
-124 149 354 355 0
124 -149 354 355 0
-131 156 356 0
131 -156 356 0
-136 161 357 0
136 -161 357 0
-141 166 358 0
141 -166 358 0
-146 171 359 0
146 -171 359 0
-137 162 360 0
137 -162 360 0
-142 167 361 0
142 -167 361 0
-147 172 362 363 364 0
147 -172 362 363 364 0
-143 168 0
143 -168 0
-148 173 0
148 -173 0
-149 174 365 366 0
149 -174 365 366 0
-156 181 367 0
156 -181 367 0
-161 186 368 0
161 -186 368 0
-166 191 369 0
166 -191 369 0
-171 196 370 0
171 -196 370 0
-162 187 371 0
162 -187 371 0
-167 192 372 0
167 -192 372 0
-172 197 373 374 375 0
172 -197 373 374 375 0
-168 193 0
168 -193 0
-173 198 0
173 -198 0
-174 199 376 377 0
174 -199 376 377 0
-301 -302 0
-301 -303 0
-301 -304 0
-301 -305 0
-301 -306 0
-301 -307 0
-301 -308 0
-301 -309 0
-302 -301 0
-302 -303 0
-302 -304 0
-302 -305 0
-303 -301 0
-303 -302 0
-303 -304 0
-303 -306 0
-303 -310 0
-303 -311 0
-304 -301 0
-304 -302 0
-304 -303 0
-304 -307 0
-304 -308 0
-304 -309 0
-304 -310 0
-304 -311 0
-305 -301 0
-305 -302 0
-305 -306 0
-305 -307 0
-305 -308 0
-305 -309 0
-306 -301 0
-306 -303 0
-306 -305 0
-306 -307 0
-306 -308 0
-306 -309 0
-306 -310 0
-306 -311 0
-307 -301 0
-307 -304 0
-307 -305 0
-307 -306 0
-307 -308 0
-307 -309 0
-307 -310 0
-307 -311 0
-308 -301 0
-308 -304 0
-308 -305 0
-308 -306 0
-308 -307 0
-308 -309 0
-308 -310 0
-308 -311 0
-309 -301 0
-309 -304 0
-309 -305 0
-309 -306 0
-309 -307 0
-309 -308 0
-309 -310 0
-309 -311 0
-310 -303 0
-310 -304 0
-310 -306 0
-310 -307 0
-310 -308 0
-310 -309 0
-310 -311 0
-311 -303 0
-311 -304 0
-311 -306 0
-311 -307 0
-311 -308 0
-311 -309 0
-311 -310 0
-312 -313 0
-312 -314 0
-312 -315 0
-312 -316 0
-312 -317 0
-312 -318 0
-312 -319 0
-312 -320 0
-313 -312 0
-313 -314 0
-313 -315 0
-313 -316 0
-314 -312 0
-314 -313 0
-314 -315 0
-314 -317 0
-314 -321 0
-314 -322 0
-315 -312 0
-315 -313 0
-315 -314 0
-315 -318 0
-315 -319 0
-315 -320 0
-315 -321 0
-315 -322 0
-316 -312 0
-316 -313 0
-316 -317 0
-316 -318 0
-316 -319 0
-316 -320 0
-317 -312 0
-317 -314 0
-317 -316 0
-317 -318 0
-317 -319 0
-317 -320 0
-317 -321 0
-317 -322 0
-318 -312 0
-318 -315 0
-318 -316 0
-318 -317 0
-318 -319 0
-318 -320 0
-318 -321 0
-318 -322 0
-319 -312 0
-319 -315 0
-319 -316 0
-319 -317 0
-319 -318 0
-319 -320 0
-319 -321 0
-319 -322 0
-320 -312 0
-320 -315 0
-320 -316 0
-320 -317 0
-320 -318 0
-320 -319 0
-320 -321 0
-320 -322 0
-321 -314 0
-321 -315 0
-321 -317 0
-321 -318 0
-321 -319 0
-321 -320 0
-321 -322 0
-322 -314 0
-322 -315 0
-322 -317 0
-322 -318 0
-322 -319 0
-322 -320 0
-322 -321 0
-323 -324 0
-323 -325 0
-323 -326 0
-323 -327 0
-323 -328 0
-323 -329 0
-323 -330 0
-323 -331 0
-324 -323 0
-324 -325 0
-324 -326 0
-324 -327 0
-325 -323 0
-325 -324 0
-325 -326 0
-325 -328 0
-325 -332 0
-325 -333 0
-326 -323 0
-326 -324 0
-326 -325 0
-326 -329 0
-326 -330 0
-326 -331 0
-326 -332 0
-326 -333 0
-327 -323 0
-327 -324 0
-327 -328 0
-327 -329 0
-327 -330 0
-327 -331 0
-328 -323 0
-328 -325 0
-328 -327 0
-328 -329 0
-328 -330 0
-328 -331 0
-328 -332 0
-328 -333 0
-329 -323 0
-329 -326 0
-329 -327 0
-329 -328 0
-329 -330 0
-329 -331 0
-329 -332 0
-329 -333 0
-330 -323 0
-330 -326 0
-330 -327 0
-330 -328 0
-330 -329 0
-330 -331 0
-330 -332 0
-330 -333 0
-331 -323 0
-331 -326 0
-331 -327 0
-331 -328 0
-331 -329 0
-331 -330 0
-331 -332 0
-331 -333 0
-332 -325 0
-332 -326 0
-332 -328 0
-332 -329 0
-332 -330 0
-332 -331 0
-332 -333 0
-333 -325 0
-333 -326 0
-333 -328 0
-333 -329 0
-333 -330 0
-333 -331 0
-333 -332 0
-334 -335 0
-334 -336 0
-334 -337 0
-334 -338 0
-334 -339 0
-334 -340 0
-334 -341 0
-334 -342 0
-335 -334 0
-335 -336 0
-335 -337 0
-335 -338 0
-336 -334 0
-336 -335 0
-336 -337 0
-336 -339 0
-336 -343 0
-336 -344 0
-337 -334 0
-337 -335 0
-337 -336 0
-337 -340 0
-337 -341 0
-337 -342 0
-337 -343 0
-337 -344 0
-338 -334 0
-338 -335 0
-338 -339 0
-338 -340 0
-338 -341 0
-338 -342 0
-339 -334 0
-339 -336 0
-339 -338 0
-339 -340 0
-339 -341 0
-339 -342 0
-339 -343 0
-339 -344 0
-340 -334 0
-340 -337 0
-340 -338 0
-340 -339 0
-340 -341 0
-340 -342 0
-340 -343 0
-340 -344 0
-341 -334 0
-341 -337 0
-341 -338 0
-341 -339 0
-341 -340 0
-341 -342 0
-341 -343 0
-341 -344 0
-342 -334 0
-342 -337 0
-342 -338 0
-342 -339 0
-342 -340 0
-342 -341 0
-342 -343 0
-342 -344 0
-343 -336 0
-343 -337 0
-343 -339 0
-343 -340 0
-343 -341 0
-343 -342 0
-343 -344 0
-344 -336 0
-344 -337 0
-344 -339 0
-344 -340 0
-344 -341 0
-344 -342 0
-344 -343 0
-345 -346 0
-345 -347 0
-345 -348 0
-345 -349 0
-345 -350 0
-345 -351 0
-345 -352 0
-345 -353 0
-346 -345 0
-346 -347 0
-346 -348 0
-346 -349 0
-347 -345 0
-347 -346 0
-347 -348 0
-347 -350 0
-347 -354 0
-347 -355 0
-348 -345 0
-348 -346 0
-348 -347 0
-348 -351 0
-348 -352 0
-348 -353 0
-348 -354 0
-348 -355 0
-349 -345 0
-349 -346 0
-349 -350 0
-349 -351 0
-349 -352 0
-349 -353 0
-350 -345 0
-350 -347 0
-350 -349 0
-350 -351 0
-350 -352 0
-350 -353 0
-350 -354 0
-350 -355 0
-351 -345 0
-351 -348 0
-351 -349 0
-351 -350 0
-351 -352 0
-351 -353 0
-351 -354 0
-351 -355 0
-352 -345 0
-352 -348 0
-352 -349 0
-352 -350 0
-352 -351 0
-352 -353 0
-352 -354 0
-352 -355 0
-353 -345 0
-353 -348 0
-353 -349 0
-353 -350 0
-353 -351 0
-353 -352 0
-353 -354 0
-353 -355 0
-354 -347 0
-354 -348 0
-354 -350 0
-354 -351 0
-354 -352 0
-354 -353 0
-354 -355 0
-355 -347 0
-355 -348 0
-355 -350 0
-355 -351 0
-355 -352 0
-355 -353 0
-355 -354 0
-356 -357 0
-356 -358 0
-356 -359 0
-356 -360 0
-356 -361 0
-356 -362 0
-356 -363 0
-356 -364 0
-357 -356 0
-357 -358 0
-357 -359 0
-357 -360 0
-358 -356 0
-358 -357 0
-358 -359 0
-358 -361 0
-358 -365 0
-358 -366 0
-359 -356 0
-359 -357 0
-359 -358 0
-359 -362 0
-359 -363 0
-359 -364 0
-359 -365 0
-359 -366 0
-360 -356 0
-360 -357 0
-360 -361 0
-360 -362 0
-360 -363 0
-360 -364 0
-361 -356 0
-361 -358 0
-361 -360 0
-361 -362 0
-361 -363 0
-361 -364 0
-361 -365 0
-361 -366 0
-362 -356 0
-362 -359 0
-362 -360 0
-362 -361 0
-362 -363 0
-362 -364 0
-362 -365 0
-362 -366 0
-363 -356 0
-363 -359 0
-363 -360 0
-363 -361 0
-363 -362 0
-363 -364 0
-363 -365 0
-363 -366 0
-364 -356 0
-364 -359 0
-364 -360 0
-364 -361 0
-364 -362 0
-364 -363 0
-364 -365 0
-364 -366 0
-365 -358 0
-365 -359 0
-365 -361 0
-365 -362 0
-365 -363 0
-365 -364 0
-365 -366 0
-366 -358 0
-366 -359 0
-366 -361 0
-366 -362 0
-366 -363 0
-366 -364 0
-366 -365 0
-367 -368 0
-367 -369 0
-367 -370 0
-367 -371 0
-367 -372 0
-367 -373 0
-367 -374 0
-367 -375 0
-368 -367 0
-368 -369 0
-368 -370 0
-368 -371 0
-369 -367 0
-369 -368 0
-369 -370 0
-369 -372 0
-369 -376 0
-369 -377 0
-370 -367 0
-370 -368 0
-370 -369 0
-370 -373 0
-370 -374 0
-370 -375 0
-370 -376 0
-370 -377 0
-371 -367 0
-371 -368 0
-371 -372 0
-371 -373 0
-371 -374 0
-371 -375 0
-372 -367 0
-372 -369 0
-372 -371 0
-372 -373 0
-372 -374 0
-372 -375 0
-372 -376 0
-372 -377 0
-373 -367 0
-373 -370 0
-373 -371 0
-373 -372 0
-373 -374 0
-373 -375 0
-373 -376 0
-373 -377 0
-374 -367 0
-374 -370 0
-374 -371 0
-374 -372 0
-374 -373 0
-374 -375 0
-374 -376 0
-374 -377 0
-375 -367 0
-375 -370 0
-375 -371 0
-375 -372 0
-375 -373 0
-375 -374 0
-375 -376 0
-375 -377 0
-376 -369 0
-376 -370 0
-376 -372 0
-376 -373 0
-376 -374 0
-376 -375 0
-376 -377 0
-377 -369 0
-377 -370 0
-377 -372 0
-377 -373 0
-377 -374 0
-377 -375 0
-377 -376 0